p cnf 23 20
16 -5 13 22 4 0
-22 13 -12 -18 5 16 17 4 -1 9 -2 -19 0
18 -1 13 0
-6 -20 9 0
-12 10 7 0
2 23 -22 0
-8 6 -13 10 3 -18 -22 -11 -15 19 5 17 -1 -12 -23 0
-13 -10 5 -15 -21 1 -18 0
-14 -7 2 0
11 -12 14 -8 -4 22 -6 -1 -15 0
-16 2 -19 9 0
11 -8 17 0
-3 7 -4 -16 0
-13 -23 22 -10 -17 -2 0
19 -2 -23 21 0
12 14 0
-13 9 7 -10 -18 -11 3 23 -4 -8 6 -14 -15 17 0
21 6 -3 18 8 -13 2 -7 -22 14 19 11 -20 9 12 0
16 5 -10 13 0
10 12 4 -22 -16 -11 7 -9 14 -5 -3 1 18 20 17 0
